32
0       0       0
1       0       26
2       0       26
3       0       24
4       1       27
5       2       28
6       2       35
7       3       37
8       8       41
9       1       38
10      1       25
11      4       30
12      3       36
13      3       30
14      3       29
15      2       40
16      13      39
17      9       33
18      13      37
19      22      46
20      8       34
21      23      47
22      15      40
23      9       34
24      20      46
25      30      50
26      16      38
27      23      45
28      23      49
29      33      51
30      13      55
31      43      58
